90 362719
26 54 37 12 24 44 69 13 22 90 50 63 20 25 64 48 80 58 3 43 42 2 77 39 61 49 52 16 56 87 11 66 17 41 82 79 28 9 10 1 70 32 6 86 53 15 14 59 81 71 51 21 65 67 73 83 47 7 4 40 55 72 31 34 18 89 60 62 27 45 78 46 76 68 36 38 74 29 33 84 19 8 5 30 88 85 75 35 57 23 
